%NPROC=1', f'%MEM=512MB
%chk=binder_1h1q.antechamber.chk
#P HF/6-31G* OPT(CalcFC)

Gaussian Calculation

0 1
     C  1.42200 29.03400  6.76800 
     C -1.45000 32.16300  8.00800 
     C -0.58200 26.62500  8.97800 
     C -1.25000 25.76700 10.08100 
     C -1.35500 24.33100  9.52700 
     C -1.65300 23.27300 10.60300 
     C -0.78100 23.34300 11.86500 
     C -0.71200 24.77900 12.43200 
     C -0.38800 25.86000 11.38000 
     C  4.76400 25.85300  5.51600 
     C  4.79400 25.24200  6.76700 
     C  4.08500 25.78700  7.83600 
     C  3.33600 26.94500  7.64000 
     N  0.48800 28.18000  7.49800 
     C -0.56800 28.63700  8.08600 
     O -1.38900 27.80800  8.75200 
     C -0.83700 30.05900  7.98700 
     N -1.80600 31.02200  8.42500 
     N -0.33700 32.09600  7.31800 
     C  0.01200 30.84400  7.31100 
     N  1.17200 30.27800  6.70900 
     N  2.52300 28.72100  6.15700 
     C  3.28400 27.56200  6.38200 
     C  4.02100 27.01700  5.33200 
     H -1.97300 33.08500  8.15900 
     H -0.54000 26.05400  8.04300 
     H  0.45400 26.77600  9.31100 
     H -2.25800 26.12500 10.29600 
     H -0.40900 24.04200  9.06300 
     H -2.10600 24.28200  8.73600 
     H -1.60900 22.27100 10.17600 
     H -2.68400 23.42200 10.91600 
     H  0.23000 23.01400 11.61800 
     H -1.15200 22.65200 12.62300 
     H -0.02700 24.81100 13.27200 
     H -1.68700 25.01800 12.86200 
     H -0.47400 26.85300 11.82400 
     H  0.67100 25.72900 11.14700 
     H  5.33300 25.44200  4.69400 
     H  5.39300 24.35600  6.91300 
     H  4.12000 25.32100  8.81200 
     H  2.79000 27.36200  8.47300 
     H  0.08800 32.89600  6.84400 
     H  2.95000 29.45600  5.61100 
     H  4.02400 27.49600  4.37000 


--Link1--
%NPROC=1', f'%MEM=512MB
%chk=binder_1h1q.antechamber.chk
#P PBE1PBE/6-31G* OPT(CalcFC) GEOM(ALLCheck) Guess(Read)

Gaussian Calculation

0 1


--Link1--
%NPROC=1', f'%MEM=512MB
%chk=binder_1h1q.antechamber.chk
#P HF/6-31G* GEOM(AllCheck) Guess(Read) NoSymm Pop=mk IOp(6/33=2) GFInput GFPrint

Gaussian Calculation

0 1


