%NPROC=1', f'%MEM=512MB
%chk=binder_32.antechamber.chk
#P HF/6-31G* OPT(CalcFC)

Gaussian Calculation

0 1
     C  1.42200 29.03400  6.76800 
     C -1.45000 32.16300  8.00800 
     C -0.58200 26.62500  8.97800 
     C -1.25000 25.76700 10.08100 
     C -1.35500 24.33100  9.52700 
     C -1.65300 23.27300 10.60300 
     C -0.78100 23.34300 11.86500 
     C -0.71200 24.77900 12.43200 
     C -0.38800 25.86000 11.38000 
     C  4.57500 25.65900  5.72400 
     C  4.54100 25.13400  7.02500 
     C  3.95700 25.86600  8.05900 
     C  3.32900 27.07500  7.77800 
     N  0.48800 28.18000  7.49800 
     C -0.56800 28.63700  8.08600 
     O -1.38900 27.80800  8.75200 
     C -0.83700 30.05900  7.98700 
     N -1.80600 31.02200  8.42500 
     N -0.33700 32.09600  7.31800 
     C  0.01200 30.84400  7.31100 
     N  1.17200 30.27800  6.70900 
     N  2.52300 28.72100  6.15700 
     C  3.26700 27.57400  6.47300 
     C  3.93600 26.88500  5.46800 
     H -1.97400 33.08500  8.15900 
     H -0.54100 26.05400  8.04300 
     H  0.45400 26.77600  9.31100 
     H -2.25800 26.12500 10.29600 
     H -0.41000 24.04200  9.06300 
     H -2.10600 24.28200  8.73600 
     H -1.60900 22.27100 10.17600 
     H -2.68400 23.42200 10.91600 
     H  0.23000 23.01400 11.61800 
     H -1.15200 22.65200 12.62300 
     H -0.02700 24.81100 13.27200 
     H -1.68700 25.01800 12.86200 
     H -0.47400 26.85300 11.82400 
     H  0.67100 25.72900 11.14800 
     H  2.83600 27.60400  8.57700 
     H  0.08900 32.89500  6.84400 
     H  3.00100 29.47700  5.68700 
     H  3.92000 27.30800  4.47900 
     S  5.24700 23.53300  7.39100 
     O  6.59400 23.74800  7.91600 
     O  5.02000 22.64300  6.25000 
     H  3.33600 22.89300  8.47400 
     N  4.33300 22.85200  8.67100 
     H  4.54900 23.28700  9.59600 
     O  3.95300 25.39500  9.33900 
     C  3.29200 26.37000 10.11400 
     H  3.25700 26.03800 11.18100 
     H  3.84500 27.34000 10.04300 
     H  2.24900 26.50600  9.73100 
     H  5.08600 25.12300  4.93800 


--Link1--
%NPROC=1', f'%MEM=512MB
%chk=binder_32.antechamber.chk
#P PBE1PBE/6-31G* OPT(CalcFC) GEOM(ALLCheck) Guess(Read)

Gaussian Calculation

0 1


--Link1--
%NPROC=1', f'%MEM=512MB
%chk=binder_32.antechamber.chk
#P HF/6-31G* GEOM(AllCheck) Guess(Read) NoSymm Pop=mk IOp(6/33=2) GFInput GFPrint

Gaussian Calculation

0 1


