%NPROC=1', f'%MEM=512MB
%chk=binder_20.antechamber.chk
#P HF/6-31G* OPT(CalcFC)

Gaussian Calculation

0 1
     C  1.42200 29.03400  6.76800 
     C -1.45000 32.16300  8.00800 
     C -0.58200 26.62500  8.97800 
     C -1.25000 25.76700 10.08100 
     C -1.35500 24.33100  9.52700 
     C -1.65300 23.27300 10.60300 
     C -0.78100 23.34300 11.86500 
     C -0.71200 24.77900 12.43200 
     C -0.38800 25.86000 11.38000 
     C  4.14300 25.65200  7.42100 
     C  4.83900 25.21600  6.29300 
     C  4.77100 25.96200  5.12500 
     C  4.02100 27.13400  5.10800 
     N  0.48800 28.18000  7.49800 
     C -0.56800 28.63700  8.08600 
     O -1.38900 27.80800  8.75200 
     C -0.83700 30.05900  7.98700 
     N -1.80600 31.02200  8.42500 
     N -0.33700 32.09600  7.31800 
     C  0.01200 30.84400  7.31100 
     N  1.17200 30.27800  6.70900 
     N  2.52300 28.72100  6.15700 
     C  3.27300 27.54400  6.21100 
     C  3.34600 26.79300  7.37500 
     H -1.97300 33.08500  8.15900 
     H -0.54000 26.05400  8.04300 
     H  0.45400 26.77500  9.31000 
     H -2.25800 26.12500 10.29600 
     H -0.40800 24.04300  9.06500 
     H -2.10500 24.28200  8.73500 
     H -1.60800 22.27100 10.17500 
     H -2.68400 23.42200 10.91600 
     H  0.23000 23.01500 11.61700 
     H -1.15100 22.65100 12.62300 
     H -1.68600 25.01800 12.86300 
     H -0.02600 24.81100 13.27200 
     H -0.47300 26.85300 11.82400 
     H  0.67100 25.72700 11.14600 
     H  5.46700 24.33900  6.33100 
     H  5.34000 25.66900  4.25400 
     H  4.05900 27.73700  4.23300 
     H  0.08800 32.89600  6.84400 
     H  2.89200 29.45900  5.57500 
     H  2.81300 27.11700  8.25700 
     C  4.32200 24.96300  8.72900 
     H  4.07900 25.65700  9.53300 
     O  3.54400 23.80600  8.88800 
     H  5.37500 24.71000  8.84700 
     H  3.78700 23.56200  9.81400 


--Link1--
%NPROC=1', f'%MEM=512MB
%chk=binder_20.antechamber.chk
#P PBE1PBE/6-31G* OPT(CalcFC) GEOM(ALLCheck) Guess(Read)

Gaussian Calculation

0 1


--Link1--
%NPROC=1', f'%MEM=512MB
%chk=binder_20.antechamber.chk
#P HF/6-31G* GEOM(AllCheck) Guess(Read) NoSymm Pop=mk IOp(6/33=2) GFInput GFPrint

Gaussian Calculation

0 1


