%NPROC=1', f'%MEM=512MB
%chk=binder_1oiy.antechamber.chk
#P HF/6-31G* OPT(CalcFC)

Gaussian Calculation

0 1
     C  1.42200 29.03400  6.76800 
     C -1.45000 32.16300  8.00800 
     C -0.58200 26.62500  8.97800 
     C -1.25000 25.76700 10.08100 
     C -1.35500 24.33100  9.52700 
     C -1.65300 23.27300 10.60300 
     C -0.78100 23.34300 11.86500 
     C -0.71200 24.77900 12.43200 
     C -0.38800 25.86000 11.38000 
     C  4.73700 25.78900  5.71300 
     C  4.74700 25.22300  6.99900 
     C  4.02900 25.86300  8.01800 
     C  3.31800 27.02900  7.74500 
     N  0.48800 28.18000  7.49800 
     C -0.56800 28.63700  8.08600 
     O -1.38900 27.80800  8.75200 
     C -0.83700 30.05900  7.98700 
     N -1.80600 31.02200  8.42500 
     N -0.33700 32.09600  7.31800 
     C  0.01200 30.84400  7.31100 
     N  1.17200 30.27800  6.70900 
     N  2.52300 28.72100  6.15700 
     C  3.28400 27.57500  6.45500 
     C  4.01900 26.95600  5.44900 
     H -1.97300 33.08500  8.15900 
     H -0.54000 26.05400  8.04300 
     H  0.45400 26.77600  9.31100 
     H -2.25800 26.12500 10.29600 
     H -0.40900 24.04200  9.06400 
     H -2.10600 24.28200  8.73600 
     H -1.60900 22.27100 10.17600 
     H -2.68400 23.42200 10.91600 
     H  0.23000 23.01400 11.61800 
     H -1.15100 22.65200 12.62300 
     H -0.02700 24.81100 13.27200 
     H -1.68700 25.01800 12.86200 
     H -0.47400 26.85300 11.82400 
     H  0.67100 25.72900 11.14800 
     H  5.29400 25.33500  4.90500 
     H  4.00900 25.47200  9.02700 
     H  2.76900 27.49900  8.54600 
     H  0.08800 32.89600  6.84400 
     H  2.97900 29.46500  5.64600 
     H  4.03000 27.37700  4.45600 
     C  5.53500 23.95700  7.25700 
     O  5.93800 23.24600  6.34000 
     H  6.44700 22.84000  8.62100 
     N  5.86100 23.64700  8.50300 
     H  5.30100 23.92900  9.30900 


--Link1--
%NPROC=1', f'%MEM=512MB
%chk=binder_1oiy.antechamber.chk
#P PBE1PBE/6-31G* OPT(CalcFC) GEOM(ALLCheck) Guess(Read)

Gaussian Calculation

0 1


--Link1--
%NPROC=1', f'%MEM=512MB
%chk=binder_1oiy.antechamber.chk
#P HF/6-31G* GEOM(AllCheck) Guess(Read) NoSymm Pop=mk IOp(6/33=2) GFInput GFPrint

Gaussian Calculation

0 1


