%NPROC=1', f'%MEM=512MB
%chk=binder_30.antechamber.chk
#P HF/6-31G* OPT(CalcFC)

Gaussian Calculation

0 1
     C  1.42200 29.03400  6.76800 
     C -1.45000 32.16300  8.00800 
     C -0.58200 26.62500  8.97800 
     C -1.25000 25.76700 10.08100 
     C -1.35500 24.33100  9.52700 
     C -1.65300 23.27300 10.60300 
     C -0.78100 23.34300 11.86500 
     C -0.71200 24.77900 12.43200 
     C -0.38800 25.86000 11.38000 
     C  4.68200 25.79800  5.51800 
     C  4.70800 25.19600  6.77800 
     C  4.06100 25.79700  7.85900 
     C  3.35000 26.97700  7.66000 
     N  0.48800 28.18000  7.49800 
     C -0.56800 28.63700  8.08600 
     O -1.38900 27.80800  8.75200 
     C -0.83700 30.05900  7.98700 
     N -1.80600 31.02200  8.42500 
     N -0.33700 32.09600  7.31800 
     C  0.01200 30.84400  7.31100 
     N  1.17200 30.27800  6.70900 
     N  2.52300 28.72100  6.15700 
     C  3.28000 27.56500  6.39100 
     C  3.98000 26.98700  5.33700 
     H -1.97300 33.08500  8.15900 
     H -0.54100 26.05400  8.04300 
     H  0.45400 26.77600  9.31100 
     H -2.25800 26.12500 10.29600 
     H -0.40900 24.04200  9.06300 
     H -2.10600 24.28200  8.73600 
     H -1.60900 22.27100 10.17600 
     H -2.68400 23.42200 10.91600 
     H  0.23000 23.01400 11.61800 
     H -1.15200 22.65200 12.62300 
     H -0.02700 24.81100 13.27300 
     H -1.68700 25.01800 12.86200 
     H -0.47400 26.85300 11.82400 
     H  0.67100 25.72900 11.14800 
     H  5.20100 25.35600  4.67900 
     H  4.09500 25.34700  8.84400 
     H  2.83300 27.42500  8.49400 
     H  0.08800 32.89600  6.84500 
     H  2.96200 29.46400  5.63100 
     H  3.97100 27.44900  4.36500 
     S  5.56500 23.64900  7.02200 
     O  6.49000 23.83500  8.14200 
     O  6.07400 23.19400  5.72400 
     H  4.67200 21.49400  7.66700 
     H  3.83800 22.82600  8.50900 
     C  4.22700 22.47800  7.55600 
     H  3.45200 22.47000  6.79500 


--Link1--
%NPROC=1', f'%MEM=512MB
%chk=binder_30.antechamber.chk
#P PBE1PBE/6-31G* OPT(CalcFC) GEOM(ALLCheck) Guess(Read)

Gaussian Calculation

0 1


--Link1--
%NPROC=1', f'%MEM=512MB
%chk=binder_30.antechamber.chk
#P HF/6-31G* GEOM(AllCheck) Guess(Read) NoSymm Pop=mk IOp(6/33=2) GFInput GFPrint

Gaussian Calculation

0 1


